
Gurobi 11.0.3 (linux64) logging started Sun Nov 24 21:53:00 2024

Set parameter LogFile to value "/home/yihong/Coding/OR_SUC/SUC_results_bigM100000_thread4/case24_ieee_rts_theta0.1_epsilon0.05_gurobi_seed1290000_num_gen100_N_WDR100_load_scaling_factor1_proposed_T28quadra_cost.txt"
Set parameter TimeLimit to value 3600
Gurobi Optimizer version 11.0.3 build v11.0.3rc0 (linux64 - "Ubuntu 20.04.6 LTS")

CPU model: AMD EPYC 7532 32-Core Processor, instruction set [SSE2|AVX|AVX2]
Thread count: 64 physical cores, 128 logical processors, using up to 4 threads

Optimize a model with 67234 rows, 34821 columns and 1535514 nonzeros
Model fingerprint: 0xf2588197
Model has 2800 quadratic constraints
Variable types: 32021 continuous, 2800 integer (2800 binary)
Coefficient statistics:
  Matrix range     [3e-04, 2e+03]
  QMatrix range    [2e-03, 8e-03]
  QLMatrix range   [2e-02, 6e+01]
  Objective range  [1e+00, 1e+00]
  Bounds range     [1e+00, 1e+00]
  RHS range        [1e+00, 9e+03]
Presolve removed 54957 rows and 14760 columns
Presolve time: 0.48s
Presolved: 12277 rows, 20061 columns, 68501 nonzeros
Presolved model has 2800 quadratic constraint(s)
Variable types: 17261 continuous, 2800 integer (2800 binary)

Root relaxation: objective 4.307502e+04, 9678 iterations, 0.30 seconds (0.44 work units)

    Nodes    |    Current Node    |     Objective Bounds      |     Work
 Expl Unexpl |  Obj  Depth IntInf | Incumbent    BestBd   Gap | It/Node Time

H    0     0                    824760.91829 43075.0214  94.8%     -    1s
*    0     0               0    824760.91829 43075.0214  94.8%     -    1s
     0     0 455270.004    0  786 824760.918 455270.004  44.8%     -    1s
     0     0 765816.190    0  388 824760.918 765816.190  7.15%     -    2s
     0     0 766049.904    0   72 824760.918 766049.904  7.12%     -    3s
     0     0 766049.904    0   75 824760.918 766049.904  7.12%     -    3s
     0     0 766049.904    0   75 824760.918 766049.904  7.12%     -    3s
     0     0 766049.904    0   75 824760.918 766049.904  7.12%     -    3s
     0     0 766049.904    0   75 824760.918 766049.904  7.12%     -    3s
     0     2 766049.904    0   75 824760.918 766049.904  7.12%     -    4s
     3     8 766084.088    2   76 824760.918 766052.756  7.12%  96.3    5s
H  171   170                    766432.10457 766053.926  0.05%  47.5    8s
*  171   170              53    766432.10457 766053.926  0.05%  47.5    8s

Cutting planes:
  Gomory: 23
  Lift-and-project: 30
  Implied bound: 192
  MIR: 30
  Flow cover: 166
  RLT: 375
  Relax-and-lift: 140

Explored 181 nodes (33819 simplex iterations) in 9.51 seconds (14.06 work units)
Thread count was 4 (of 128 available processors)

Solution count 3: 766432 766432 824761 

Optimal solution found (tolerance 1.00e-03)
Warning: max constraint violation (1.3436e-08) exceeds tolerance
Best objective 7.664321045673e+05, best bound 7.660539264151e+05, gap 0.0493%
